(set-logic ALL)
(declare-const command_script String)
(assert (not (< (str.len command_script) 0)))
(assert (not (= (+ 0 (str.indexof command_script " " 0)) (- 1))))
(assert (not (< (+ 0 (str.indexof command_script " " 0)) 0)))
(assert (not (< (+ (+ 0 (str.indexof command_script " " 0)) 1) 0)))
(assert (not (< (str.len command_script) 0)))
(assert (not (< (str.len (str.substr command_script (+ (+ 0 (str.indexof command_script " " 0)) 1) (- (str.len command_script) (+ (+ 0 (str.indexof command_script " " 0)) 1)))) 0)))
(assert (not (= (+ 0 (str.indexof (str.substr command_script (+ (+ 0 (str.indexof command_script " " 0)) 1) (- (str.len command_script) (+ (+ 0 (str.indexof command_script " " 0)) 1))) " " 0)) (- 1))))
(check-sat)
(get-value (command_script))
